objective value:                                   20
lambda[0,54]*                                       1 	(obj:12)
lambda[0,65]*                                       4 	(obj:0)
lambda[1,155]*                                     10 	(obj:0)
lambda[0,144]*                                      2 	(obj:4)
lambda[0,174]*                                      3 	(obj:0)
